jobs  (incl. supersource/sink ):	52
RESOURCES
- renewable                 : 2 R
- nonrenewable              : 2 N
- doubly constrained        : 0 D
************************************************************************
PRECEDENCE RELATIONS:
jobnr.    #modes  #successors   successors
1	1	11		2 3 4 5 6 9 11 12 13 15 17 
2	9	5		26 25 22 10 7 
3	9	5		32 22 20 14 7 
4	9	4		22 18 16 7 
5	9	9		30 28 27 25 23 22 21 19 16 
6	9	2		30 8 
7	9	9		33 31 30 28 27 24 23 21 19 
8	9	10		39 38 32 31 28 27 26 24 22 19 
9	9	7		33 31 28 24 22 21 20 
10	9	4		32 28 24 14 
11	9	7		31 28 27 24 22 21 19 
12	9	8		34 33 31 30 28 26 25 23 
13	9	9		39 33 32 31 30 29 28 27 25 
14	9	7		37 34 31 30 29 27 21 
15	9	7		51 39 31 30 29 26 24 
16	9	7		51 37 36 32 31 29 24 
17	9	6		50 38 30 29 28 27 
18	9	6		50 39 34 31 30 29 
19	9	8		51 50 49 48 37 36 34 29 
20	9	5		50 49 34 29 25 
21	9	9		51 50 49 48 43 39 38 36 35 
22	9	8		50 49 48 45 42 37 34 29 
23	9	6		51 50 49 48 42 29 
24	9	8		50 49 48 45 42 40 35 34 
25	9	6		48 47 46 44 38 36 
26	9	6		50 47 45 42 37 35 
27	9	7		51 47 43 42 41 40 35 
28	9	8		49 48 47 46 45 43 42 40 
29	9	5		47 43 41 40 35 
30	9	4		48 43 41 36 
31	9	5		49 43 42 41 40 
32	9	4		50 45 44 43 
33	9	4		49 48 45 41 
34	9	3		47 44 43 
35	9	2		46 44 
36	9	2		45 42 
37	9	2		41 40 
38	9	2		41 40 
39	9	1		40 
40	9	1		52 
41	9	1		52 
42	9	1		52 
43	9	1		52 
44	9	1		52 
45	9	1		52 
46	9	1		52 
47	9	1		52 
48	9	1		52 
49	9	1		52 
50	9	1		52 
51	9	1		52 
52	1	0		
************************************************************************
REQUESTS/DURATIONS
jobnr.	mode	dur	R1	R2	N1	N2	
------------------------------------------------------------------------
1	1	0	0	0	0	0	
2	1	4	1	2	26	24	
	2	5	1	2	25	24	
	3	6	1	2	25	23	
	4	11	1	2	25	22	
	5	15	1	2	24	22	
	6	19	1	2	24	21	
	7	20	1	2	23	21	
	8	23	1	2	23	20	
	9	25	1	2	23	19	
3	1	5	5	4	23	27	
	2	5	4	3	22	28	
	3	6	4	3	22	27	
	4	10	3	3	22	26	
	5	13	2	2	21	26	
	6	14	2	2	21	25	
	7	19	1	2	20	26	
	8	20	1	2	20	25	
	9	29	1	2	20	24	
4	1	2	3	4	13	11	
	2	4	3	4	13	9	
	3	7	3	3	13	8	
	4	10	3	3	12	7	
	5	11	3	3	11	5	
	6	12	3	2	11	4	
	7	14	3	2	10	3	
	8	15	3	1	10	2	
	9	17	3	1	10	1	
5	1	2	3	5	20	11	
	2	3	3	5	16	9	
	3	12	3	5	15	9	
	4	16	3	5	15	8	
	5	18	2	5	11	7	
	6	20	2	5	11	6	
	7	26	2	5	8	7	
	8	27	2	5	7	5	
	9	30	2	5	6	5	
6	1	1	4	4	15	4	
	2	3	4	4	15	3	
	3	4	4	4	14	4	
	4	5	4	4	13	4	
	5	10	4	3	12	4	
	6	13	4	3	10	4	
	7	20	4	2	10	4	
	8	24	4	2	8	4	
	9	26	4	2	8	3	
7	1	2	2	4	22	25	
	2	4	2	4	20	23	
	3	9	2	4	19	22	
	4	11	2	4	18	20	
	5	18	2	4	15	20	
	6	20	2	3	14	18	
	7	24	2	3	14	17	
	8	25	2	3	12	16	
	9	27	2	3	11	15	
8	1	12	4	5	29	25	
	2	13	4	4	26	24	
	3	14	4	4	23	19	
	4	16	4	4	20	17	
	5	17	4	4	18	15	
	6	18	4	4	14	14	
	7	24	4	4	9	10	
	8	27	4	4	7	7	
	9	29	4	4	4	5	
9	1	5	3	3	14	27	
	2	11	2	3	14	23	
	3	13	2	3	12	20	
	4	14	2	2	10	16	
	5	18	2	2	10	13	
	6	19	1	2	7	12	
	7	20	1	1	5	7	
	8	21	1	1	5	3	
	9	30	1	1	3	1	
10	1	10	3	1	14	28	
	2	11	3	1	12	27	
	3	13	3	1	11	27	
	4	18	3	1	10	27	
	5	19	2	1	10	26	
	6	22	2	1	9	25	
	7	23	2	1	8	25	
	8	26	2	1	7	24	
	9	29	2	1	6	24	
11	1	5	4	3	28	22	
	2	8	4	2	28	21	
	3	13	4	2	27	20	
	4	17	4	2	26	19	
	5	19	4	2	25	16	
	6	24	4	2	25	15	
	7	25	4	2	23	13	
	8	27	4	2	23	11	
	9	30	4	2	22	11	
12	1	4	4	4	27	27	
	2	5	4	4	23	25	
	3	10	4	4	21	23	
	4	19	4	4	17	22	
	5	22	3	4	15	20	
	6	23	3	3	11	19	
	7	24	2	3	11	17	
	8	25	2	3	8	13	
	9	26	2	3	5	12	
13	1	9	5	3	26	12	
	2	11	4	3	26	11	
	3	12	4	3	26	10	
	4	13	3	3	26	9	
	5	14	2	2	26	8	
	6	15	2	2	26	7	
	7	16	1	2	26	6	
	8	18	1	1	26	4	
	9	23	1	1	26	3	
14	1	7	3	4	13	20	
	2	8	2	4	12	17	
	3	9	2	4	12	15	
	4	10	2	4	12	12	
	5	11	2	4	12	11	
	6	15	2	4	12	9	
	7	18	2	4	12	7	
	8	20	2	4	12	5	
	9	29	2	4	12	2	
15	1	2	4	2	25	4	
	2	3	4	2	23	4	
	3	11	4	2	21	4	
	4	17	4	2	19	3	
	5	19	4	2	16	2	
	6	24	4	1	14	2	
	7	25	4	1	11	1	
	8	27	4	1	10	1	
	9	28	4	1	9	1	
16	1	3	2	5	18	16	
	2	4	2	4	17	15	
	3	6	2	4	16	12	
	4	7	2	4	16	10	
	5	11	2	3	15	10	
	6	13	2	3	14	7	
	7	25	2	3	14	6	
	8	27	2	2	13	6	
	9	29	2	2	12	4	
17	1	8	5	4	29	20	
	2	9	4	4	29	17	
	3	12	3	4	28	15	
	4	14	3	4	26	13	
	5	15	3	4	25	10	
	6	22	2	4	25	10	
	7	23	1	4	23	6	
	8	25	1	4	22	4	
	9	27	1	4	21	4	
18	1	9	5	2	18	24	
	2	10	5	2	18	23	
	3	11	5	2	18	19	
	4	14	5	2	18	18	
	5	19	5	2	18	15	
	6	21	5	1	18	12	
	7	28	5	1	18	10	
	8	29	5	1	18	6	
	9	30	5	1	18	5	
19	1	2	1	4	19	20	
	2	3	1	3	19	19	
	3	4	1	3	18	18	
	4	11	1	3	15	17	
	5	15	1	3	14	17	
	6	16	1	3	14	16	
	7	18	1	3	12	16	
	8	19	1	3	11	16	
	9	23	1	3	10	15	
20	1	11	5	3	20	19	
	2	18	4	2	19	15	
	3	19	4	2	19	14	
	4	20	4	2	18	12	
	5	21	4	1	17	10	
	6	22	4	1	17	8	
	7	23	4	1	16	7	
	8	24	4	1	16	5	
	9	25	4	1	16	2	
21	1	5	3	2	18	12	
	2	12	2	2	17	12	
	3	13	2	2	16	11	
	4	19	2	2	14	10	
	5	20	2	2	14	9	
	6	21	2	2	14	8	
	7	25	2	2	12	8	
	8	27	2	2	12	7	
	9	28	2	2	11	6	
22	1	2	3	3	12	5	
	2	4	2	3	10	5	
	3	7	2	3	8	5	
	4	9	2	3	8	4	
	5	14	2	3	6	5	
	6	17	1	3	5	4	
	7	25	1	3	3	4	
	8	27	1	3	2	4	
	9	28	1	3	2	3	
23	1	1	2	1	29	25	
	2	3	2	1	26	21	
	3	8	2	1	23	20	
	4	15	2	1	20	18	
	5	16	2	1	19	18	
	6	20	2	1	16	15	
	7	21	2	1	16	14	
	8	22	2	1	13	13	
	9	30	2	1	11	11	
24	1	5	1	4	27	24	
	2	8	1	4	26	20	
	3	9	1	4	25	19	
	4	10	1	4	25	15	
	5	11	1	3	24	14	
	6	12	1	3	23	12	
	7	13	1	3	21	9	
	8	19	1	2	21	8	
	9	20	1	2	20	6	
25	1	3	2	4	12	22	
	2	4	2	4	11	21	
	3	5	2	4	9	20	
	4	16	2	4	9	19	
	5	20	2	4	8	19	
	6	21	2	4	8	18	
	7	23	2	4	6	17	
	8	26	2	4	6	16	
	9	27	2	4	5	16	
26	1	1	4	5	12	19	
	2	2	4	4	12	18	
	3	4	4	4	12	17	
	4	7	3	4	12	17	
	5	16	3	4	11	17	
	6	18	3	3	11	17	
	7	27	2	3	11	16	
	8	28	2	3	10	15	
	9	30	2	3	10	14	
27	1	1	4	1	27	26	
	2	2	4	1	26	25	
	3	3	4	1	22	25	
	4	4	4	1	19	25	
	5	13	4	1	15	24	
	6	16	3	1	15	24	
	7	17	3	1	12	23	
	8	25	3	1	8	23	
	9	30	3	1	6	23	
28	1	2	3	1	1	25	
	2	3	3	1	1	22	
	3	7	3	1	1	20	
	4	8	2	1	1	17	
	5	10	2	1	1	16	
	6	14	2	1	1	15	
	7	19	2	1	1	13	
	8	22	1	1	1	12	
	9	23	1	1	1	10	
29	1	1	3	4	14	22	
	2	7	2	3	13	21	
	3	10	2	3	13	20	
	4	15	2	3	10	20	
	5	16	2	3	9	20	
	6	17	2	2	7	19	
	7	23	2	2	6	19	
	8	25	2	2	4	18	
	9	28	2	2	3	18	
30	1	9	4	4	28	17	
	2	14	4	3	25	17	
	3	15	4	3	23	17	
	4	16	4	2	22	17	
	5	17	4	2	20	16	
	6	18	4	2	18	16	
	7	25	4	2	16	16	
	8	28	4	1	14	16	
	9	29	4	1	13	16	
31	1	2	3	4	8	29	
	2	10	2	4	8	26	
	3	12	2	4	8	25	
	4	13	2	4	8	24	
	5	16	2	4	8	22	
	6	19	2	4	8	20	
	7	20	2	4	8	19	
	8	24	2	4	8	16	
	9	27	2	4	8	15	
32	1	6	5	5	28	8	
	2	10	4	5	25	8	
	3	14	4	5	21	7	
	4	15	3	5	18	7	
	5	17	3	5	16	6	
	6	23	3	5	11	6	
	7	27	2	5	10	6	
	8	29	2	5	6	5	
	9	30	2	5	3	5	
33	1	12	2	4	26	18	
	2	13	2	4	23	17	
	3	19	2	4	21	17	
	4	20	2	4	17	16	
	5	22	2	4	16	16	
	6	25	2	4	13	16	
	7	26	2	4	10	16	
	8	27	2	4	7	15	
	9	28	2	4	3	15	
34	1	1	3	4	28	21	
	2	8	2	3	25	20	
	3	9	2	3	23	17	
	4	10	2	2	22	15	
	5	12	2	2	19	14	
	6	25	1	2	18	12	
	7	26	1	1	14	11	
	8	29	1	1	13	9	
	9	30	1	1	10	7	
35	1	6	4	3	16	16	
	2	7	3	3	15	15	
	3	9	3	3	15	14	
	4	13	3	3	12	13	
	5	14	3	3	12	12	
	6	15	3	3	11	12	
	7	21	3	3	8	12	
	8	29	3	3	8	11	
	9	30	3	3	6	10	
36	1	4	4	4	14	15	
	2	8	3	3	14	13	
	3	17	3	3	14	12	
	4	18	3	3	14	9	
	5	22	3	2	14	9	
	6	24	3	2	14	6	
	7	26	3	2	14	5	
	8	27	3	1	14	4	
	9	28	3	1	14	2	
37	1	6	2	5	9	18	
	2	8	1	4	9	18	
	3	10	1	4	8	17	
	4	13	1	4	6	16	
	5	16	1	4	6	15	
	6	17	1	4	4	15	
	7	18	1	4	4	14	
	8	19	1	4	3	14	
	9	29	1	4	1	13	
38	1	5	2	2	21	28	
	2	9	2	2	20	27	
	3	11	2	2	19	26	
	4	15	2	2	19	24	
	5	19	2	2	17	24	
	6	21	2	2	15	23	
	7	26	2	2	14	22	
	8	27	2	2	13	20	
	9	28	2	2	11	19	
39	1	3	3	3	15	26	
	2	6	2	3	14	24	
	3	7	2	3	13	24	
	4	9	2	2	12	22	
	5	20	2	2	10	23	
	6	21	2	2	10	22	
	7	22	2	1	8	20	
	8	26	2	1	7	19	
	9	30	2	1	7	18	
40	1	6	3	4	14	9	
	2	7	3	4	13	9	
	3	10	3	4	13	8	
	4	12	3	3	12	7	
	5	14	3	3	12	6	
	6	17	3	3	12	5	
	7	22	3	2	12	6	
	8	25	3	2	11	5	
	9	26	3	2	11	4	
41	1	1	2	1	8	18	
	2	4	1	1	7	18	
	3	5	1	1	6	15	
	4	11	1	1	5	14	
	5	12	1	1	4	14	
	6	16	1	1	3	11	
	7	20	1	1	2	11	
	8	25	1	1	1	9	
	9	26	1	1	1	8	
42	1	3	1	2	21	24	
	2	6	1	2	20	24	
	3	7	1	2	20	23	
	4	15	1	2	19	24	
	5	16	1	2	19	23	
	6	17	1	2	19	22	
	7	20	1	2	19	21	
	8	24	1	2	18	22	
	9	25	1	2	18	21	
43	1	2	4	4	13	22	
	2	8	4	3	12	22	
	3	12	3	3	11	21	
	4	13	3	3	11	20	
	5	14	2	3	9	18	
	6	15	2	3	7	18	
	7	16	2	3	7	17	
	8	23	1	3	5	15	
	9	27	1	3	4	15	
44	1	1	3	3	6	21	
	2	2	2	3	6	20	
	3	8	2	3	6	19	
	4	14	2	2	5	19	
	5	16	2	2	5	18	
	6	17	2	2	5	16	
	7	20	2	1	5	16	
	8	23	2	1	4	15	
	9	28	2	1	4	14	
45	1	4	4	3	24	8	
	2	5	4	3	22	6	
	3	6	4	3	21	6	
	4	7	4	3	20	4	
	5	12	4	3	19	4	
	6	24	4	2	16	3	
	7	26	4	2	14	3	
	8	27	4	2	12	2	
	9	28	4	2	12	1	
46	1	2	4	4	5	12	
	2	3	3	4	5	12	
	3	4	3	4	4	11	
	4	7	3	3	4	11	
	5	8	2	2	3	11	
	6	11	2	2	2	10	
	7	15	2	1	2	9	
	8	20	2	1	1	9	
	9	26	2	1	1	8	
47	1	3	5	4	26	9	
	2	4	4	4	25	8	
	3	9	4	4	22	7	
	4	11	3	4	21	6	
	5	12	3	4	18	5	
	6	14	2	3	17	4	
	7	17	2	3	15	2	
	8	24	1	3	14	2	
	9	28	1	3	12	1	
48	1	5	5	5	17	28	
	2	9	4	4	17	25	
	3	10	4	4	17	23	
	4	11	3	3	16	20	
	5	12	3	3	16	18	
	6	13	2	2	16	16	
	7	23	1	1	15	14	
	8	29	1	1	15	10	
	9	30	1	1	15	9	
49	1	5	3	4	13	22	
	2	8	3	4	12	22	
	3	9	3	4	10	20	
	4	12	3	4	9	18	
	5	13	2	3	9	16	
	6	17	2	3	8	13	
	7	20	2	3	7	12	
	8	23	1	2	6	9	
	9	26	1	2	6	8	
50	1	3	4	3	26	16	
	2	6	4	3	23	14	
	3	13	4	3	23	13	
	4	15	4	3	19	12	
	5	16	4	3	18	11	
	6	17	4	2	18	10	
	7	19	4	2	15	9	
	8	25	4	2	12	8	
	9	29	4	2	12	6	
51	1	9	5	4	30	25	
	2	10	4	3	29	25	
	3	12	4	3	29	24	
	4	13	4	3	29	23	
	5	19	4	2	29	23	
	6	20	3	2	29	22	
	7	21	3	2	29	21	
	8	22	3	1	29	20	
	9	23	3	1	29	19	
52	1	0	0	0	0	0	
************************************************************************

 RESOURCE AVAILABILITIES 
	R 1	R 2	N 1	N 2
	23	22	620	621

************************************************************************
